StudentsNr = 5;
InstructorsNr = 10;
DaysNr = 1;
SlotsPerDay = 10;
RoomNr = 1;
ProgrammNr = 2;
DegreeNr = 1;
RolesNr = 1;
CoursesNr = 3;
InstructorsId = {1, 2, 3, 4, 5, 6, 7, 8, 9, 10};
InstructorsProgramm = [{2}, {2}, {2}, {1, 2}, {2}, {1}, {1}, {1, 2}, {2}, {2}];
InstructorsRoles = [{1}, {}, {}, {1}, {}, {1}, {}, {1}, {}, {}];
InstructorsAvailability = [|1, 1, 1, 1, 1, 1, 1, 0, 0, 1, |0, 0, 0, 0, 0, 0, 0, 0, 1, 0, |0, 0, 0, 1, 1, 1, 1, 1, 0, 0, |0, 0, 0, 0, 1, 1, 0, 0, 0, 0, |1, 1, 1, 1, 1, 1, 1, 1, 0, 1, |0, 0, 1, 1, 1, 1, 1, 1, 1, 1, |1, 1, 1, 1, 1, 1, 1, 1, 1, 1, |0, 1, 1, 1, 0, 0, 0, 0, 1, 0, |1, 1, 1, 1, 1, 1, 1, 1, 0, 0, |0, 0, 0, 0, 1, 1, 1, 0, 0, 0|];
StudentsId = {1, 2, 3, 4, 5};
StudentsProgramm = [2, 1, 2, 2, 1];
StudentsDegree = [1, 1, 1, 1, 1];
StudentsSupervisorId = [3, 8, 7, 4, 10];
StudentsCourseIds = [{}, {}, {}, {}, {}];
StudentsAvailability = [|1, 0, 1, 1, 1, 1, 1, 1, 1, 1, |0, 0, 0, 0, 0, 1, 0, 0, 0, 0, |0, 1, 1, 1, 1, 1, 1, 0, 0, 0, |1, 1, 1, 1, 1, 1, 1, 1, 1, 1, |1, 1, 1, 1, 1, 1, 1, 1, 1, 1|];
CoursesId = {1, 2, 3};
CoursesInstructorIds = [{3, 4, 5, 8, 9}, {2, 3, 5, 6, 7, 10}, {1, 2, 5, 8}];
